NAME : XML100_1226_10
DIMENSION : 101
NB_CLUSTERS : 3
CLUSTERING_ALG : DBSCAN
CLUSTERING_PARAMS : eps(82), minSamples(3)
CLUSTERS
1 0
2 1 2 3 5 14 16 17 18 19 21 24 26 27 30 31 34 35 36 38 40 44 46 50 51 52 55 56 58 61 62 64 67 71 72 73 76 77 78 81 82 83 86 90 92 93 94 97
3 4 6 7 8 9 10 11 12 13 15 20 22 23 25 28 29 32 33 37 39 41 42 43 45 47 48 49 53 54 57 59 60 63 65 66 68 69 70 74 75 79 80 84 85 87 88 89 91 95 96 98 99 100
EOF